NAME: lin105
COMMENT: Quick (5min) local search tour for lin105 (17883.1936128402)
TYPE: TOUR
DIMENSION: 105
TOUR_SECTION: 1 2 6 7 10 11 15 103 21 22 29 30 31 32 44 47 51 54 57 64 59 49 45 48 50 55 56 105 62 63 70 81 75 74 69 73 76 80 79 77 72 67 68 71 78 82 83 85 84 86 102 101 97 96 92 91 93 89 90 99 98 100 95 94 88 87 66 65 61 60 38 13 5 4 14 34 35 39 43 46 52 53 58 41 42 104 40 37 36 33 12 20 23 28 19 24 27 26 25 18 16 17 9 8 3 -1
EOF